NAME: France_Villes_70
TYPE: TSP
DIMENSION: 70
EDGE_WEIGHT_TYPE: EUC_2D

NODE_COORD_SECTION
1 48.8566 2.3522      # Paris
2 43.2965 5.3698      # Marseille
3 45.7640 4.8357      # Lyon
4 43.6045 1.4442      # Toulouse
5 43.7102 7.2620      # Nice
6 47.2184 -1.5536     # Nantes
7 48.5734 7.7521      # Strasbourg
8 43.6108 3.8767      # Montpellier
9 44.8378 -0.5792     # Bordeaux
10 50.6292 3.0573     # Lille
11 48.1173 -1.6778    # Rennes
12 49.2583 4.0317     # Reims
13 49.4944 0.1079     # Le Havre
14 45.4397 4.3872     # Saint-Étienne
15 43.1242 5.9280     # Toulon
16 47.9029 1.9093     # Orléans
17 47.3220 5.0415     # Dijon
18 46.5802 0.3404     # Poitiers
19 49.8941 2.2958     # Amiens
20 48.3904 -4.4861    # Brest
21 47.4784 -0.5632    # Angers
22 46.2044 6.1432     # Annecy
23 45.1885 5.7245     # Grenoble
24 46.1603 -1.1511    # La Rochelle
25 44.5588 6.0786     # Gap
26 44.9334 4.8924     # Valence
27 46.9909 3.1628     # Nevers
28 48.6921 6.1844     # Nancy
29 47.7508 7.3359     # Mulhouse
30 50.9513 1.8587     # Calais
31 49.1193 6.1757     # Metz
32 48.3000 4.0833     # Troyes
33 44.0167 1.3500     # Montauban
34 43.2329 0.0781     # Tarbes
35 42.6976 2.8954     # Perpignan
36 43.9493 4.8055     # Avignon
37 44.8040 -0.5950    # Mérignac
38 45.7772 3.0870     # Clermont-Ferrand
39 46.8103 1.6916     # Châteauroux
40 47.0810 2.3988     # Bourges
41 48.6346 -2.0260    # Saint-Malo
42 45.1580 1.5330     # Brive-la-Gaillarde
43 46.6700 5.5500     # Lons-le-Saunier
44 47.6600 -2.7600    # Vannes
45 48.8397 2.2399     # Boulogne-Billancourt
46 49.4431 1.0993     # Rouen
47 50.7239 1.6133     # Boulogne-sur-Mer
48 49.0500 2.1000     # Pontoise
49 48.0800 -0.7700    # Laval
50 47.0000 -1.1000    # Cholet
51 45.9000 6.1300     # Thonon-les-Bains
52 44.5600 6.4900     # Briançon
53 45.0500 3.8800     # Le Puy-en-Velay
54 46.4500 2.6000     # Montluçon
55 44.3500 0.4800     # Agen
56 43.5300 1.5000     # Muret
57 42.8000 1.6000     # Foix
58 43.4800 -1.5600    # Bayonne
59 45.8300 1.2600     # Limoges
60 46.3200 -0.4600    # Niort
61 49.1800 -0.3600    # Caen
62 50.2900 2.7800     # Arras
63 48.0000 0.2000     # Le Mans
64 47.2500 6.0300     # Besançon
65 49.6000 3.2000     # Laon
66 44.1200 4.0800     # Alès
67 45.6500 0.1600     # Angoulême
68 43.3000 3.2000     # Béziers
69 46.9000 -2.1000    # Challans
70 48.9500 2.2500     # Saint-Denis
EOF

